BAYES
625
2 2 2 2 2 2 2 2 2 2 2 2 2 2 2 2 2 2 2 2 2 2 2 2 2 2 2 2 2 2 2 2 2 2 2 2 2 2 2 2 2 2 2 2 2 2 2 2 2 2 2 2 2 2 2 2 2 2 2 2 2 2 2 2 2 2 2 2 2 2 2 2 2 2 2 2 2 2 2 2 2 2 2 2 2 2 2 2 2 2 2 2 2 2 2 2 2 2 2 2 2 2 2 2 2 2 2 2 2 2 2 2 2 2 2 2 2 2 2 2 2 2 2 2 2 2 2 2 2 2 2 2 2 2 2 2 2 2 2 2 2 2 2 2 2 2 2 2 2 2 2 2 2 2 2 2 2 2 2 2 2 2 2 2 2 2 2 2 2 2 2 2 2 2 2 2 2 2 2 2 2 2 2 2 2 2 2 2 2 2 2 2 2 2 2 2 2 2 2 2 2 2 2 2 2 2 2 2 2 2 2 2 2 2 2 2 2 2 2 2 2 2 2 2 2 2 2 2 2 2 2 2 2 2 2 2 2 2 2 2 2 2 2 2 2 2 2 2 2 2 2 2 2 2 2 2 2 2 2 2 2 2 2 2 2 2 2 2 2 2 2 2 2 2 2 2 2 2 2 2 2 2 2 2 2 2 2 2 2 2 2 2 2 2 2 2 2 2 2 2 2 2 2 2 2 2 2 2 2 2 2 2 2 2 2 2 2 2 2 2 2 2 2 2 2 2 2 2 2 2 2 2 2 2 2 2 2 2 2 2 2 2 2 2 2 2 2 2 2 2 2 2 2 2 2 2 2 2 2 2 2 2 2 2 2 2 2 2 2 2 2 2 2 2 2 2 2 2 2 2 2 2 2 2 2 2 2 2 2 2 2 2 2 2 2 2 2 2 2 2 2 2 2 2 2 2 2 2 2 2 2 2 2 2 2 2 2 2 2 2 2 2 2 2 2 2 2 2 2 2 2 2 2 2 2 2 2 2 2 2 2 2 2 2 2 2 2 2 2 2 2 2 2 2 2 2 2 2 2 2 2 2 2 2 2 2 2 2 2 2 2 2 2 2 2 2 2 2 2 2 2 2 2 2 2 2 2 2 2 2 2 2 2 2 2 2 2 2 2 2 2 2 2 2 2 2 2 2 2 2 2 2 2 2 2 2 2 2 2 2 2 2 2 2 2 2 2 2 2 2 2 2 2 2 2 2 2 2 2 2 2 2 2 2 2 2 2 2 2 2 2 2 2 2 2 2 2 2 2 2 2 2 2 2 2 2 2 2 2 2 2 2 2 2 2 2 2 2 2 2 2 2 2 2 2 2 2 2 2 2 2 2 2 2 2 2 2 2 2 2 2 2 2 2 2 2 2 2 2 2 2 2 2 2 2 2 2 2 2 2 2 2 2 2 2
625
1 0
2 0 1
2 1 2
2 2 3
2 3 4
2 4 5
2 5 6
2 6 7
2 7 8
2 8 9
2 9 10
2 10 11
2 11 12
2 12 13
2 13 14
2 14 15
2 15 16
2 16 17
2 17 18
2 18 19
2 19 20
2 20 21
2 21 22
2 22 23
2 23 24
2 0 25
3 1 25 26
3 2 26 27
3 3 27 28
3 4 28 29
3 5 29 30
3 6 30 31
3 7 31 32
3 8 32 33
3 9 33 34
3 10 34 35
3 11 35 36
3 12 36 37
3 13 37 38
3 14 38 39
3 15 39 40
3 16 40 41
3 17 41 42
3 18 42 43
3 19 43 44
3 20 44 45
3 21 45 46
3 22 46 47
3 23 47 48
3 24 48 49
2 25 50
3 26 50 51
3 27 51 52
3 28 52 53
3 29 53 54
3 30 54 55
3 31 55 56
3 32 56 57
3 33 57 58
3 34 58 59
3 35 59 60
3 36 60 61
3 37 61 62
3 38 62 63
3 39 63 64
3 40 64 65
3 41 65 66
3 42 66 67
3 43 67 68
3 44 68 69
3 45 69 70
3 46 70 71
3 47 71 72
3 48 72 73
3 49 73 74
2 50 75
3 51 75 76
3 52 76 77
3 53 77 78
3 54 78 79
3 55 79 80
3 56 80 81
3 57 81 82
3 58 82 83
3 59 83 84
3 60 84 85
3 61 85 86
3 62 86 87
3 63 87 88
3 64 88 89
3 65 89 90
3 66 90 91
3 67 91 92
3 68 92 93
3 69 93 94
3 70 94 95
3 71 95 96
3 72 96 97
3 73 97 98
3 74 98 99
2 75 100
3 76 100 101
3 77 101 102
3 78 102 103
3 79 103 104
3 80 104 105
3 81 105 106
3 82 106 107
3 83 107 108
3 84 108 109
3 85 109 110
3 86 110 111
3 87 111 112
3 88 112 113
3 89 113 114
3 90 114 115
3 91 115 116
3 92 116 117
3 93 117 118
3 94 118 119
3 95 119 120
3 96 120 121
3 97 121 122
3 98 122 123
3 99 123 124
2 100 125
3 101 125 126
3 102 126 127
3 103 127 128
3 104 128 129
3 105 129 130
3 106 130 131
3 107 131 132
3 108 132 133
3 109 133 134
3 110 134 135
3 111 135 136
3 112 136 137
3 113 137 138
3 114 138 139
3 115 139 140
3 116 140 141
3 117 141 142
3 118 142 143
3 119 143 144
3 120 144 145
3 121 145 146
3 122 146 147
3 123 147 148
3 124 148 149
2 125 150
3 126 150 151
3 127 151 152
3 128 152 153
3 129 153 154
3 130 154 155
3 131 155 156
3 132 156 157
3 133 157 158
3 134 158 159
3 135 159 160
3 136 160 161
3 137 161 162
3 138 162 163
3 139 163 164
3 140 164 165
3 141 165 166
3 142 166 167
3 143 167 168
3 144 168 169
3 145 169 170
3 146 170 171
3 147 171 172
3 148 172 173
3 149 173 174
2 150 175
3 151 175 176
3 152 176 177
3 153 177 178
3 154 178 179
3 155 179 180
3 156 180 181
3 157 181 182
3 158 182 183
3 159 183 184
3 160 184 185
3 161 185 186
3 162 186 187
3 163 187 188
3 164 188 189
3 165 189 190
3 166 190 191
3 167 191 192
3 168 192 193
3 169 193 194
3 170 194 195
3 171 195 196
3 172 196 197
3 173 197 198
3 174 198 199
2 175 200
3 176 200 201
3 177 201 202
3 178 202 203
3 179 203 204
3 180 204 205
3 181 205 206
3 182 206 207
3 183 207 208
3 184 208 209
3 185 209 210
3 186 210 211
3 187 211 212
3 188 212 213
3 189 213 214
3 190 214 215
3 191 215 216
3 192 216 217
3 193 217 218
3 194 218 219
3 195 219 220
3 196 220 221
3 197 221 222
3 198 222 223
3 199 223 224
2 200 225
3 201 225 226
3 202 226 227
3 203 227 228
3 204 228 229
3 205 229 230
3 206 230 231
3 207 231 232
3 208 232 233
3 209 233 234
3 210 234 235
3 211 235 236
3 212 236 237
3 213 237 238
3 214 238 239
3 215 239 240
3 216 240 241
3 217 241 242
3 218 242 243
3 219 243 244
3 220 244 245
3 221 245 246
3 222 246 247
3 223 247 248
3 224 248 249
2 225 250
3 226 250 251
3 227 251 252
3 228 252 253
3 229 253 254
3 230 254 255
3 231 255 256
3 232 256 257
3 233 257 258
3 234 258 259
3 235 259 260
3 236 260 261
3 237 261 262
3 238 262 263
3 239 263 264
3 240 264 265
3 241 265 266
3 242 266 267
3 243 267 268
3 244 268 269
3 245 269 270
3 246 270 271
3 247 271 272
3 248 272 273
3 249 273 274
2 250 275
3 251 275 276
3 252 276 277
3 253 277 278
3 254 278 279
3 255 279 280
3 256 280 281
3 257 281 282
3 258 282 283
3 259 283 284
3 260 284 285
3 261 285 286
3 262 286 287
3 263 287 288
3 264 288 289
3 265 289 290
3 266 290 291
3 267 291 292
3 268 292 293
3 269 293 294
3 270 294 295
3 271 295 296
3 272 296 297
3 273 297 298
3 274 298 299
2 275 300
3 276 300 301
3 277 301 302
3 278 302 303
3 279 303 304
3 280 304 305
3 281 305 306
3 282 306 307
3 283 307 308
3 284 308 309
3 285 309 310
3 286 310 311
3 287 311 312
3 288 312 313
3 289 313 314
3 290 314 315
3 291 315 316
3 292 316 317
3 293 317 318
3 294 318 319
3 295 319 320
3 296 320 321
3 297 321 322
3 298 322 323
3 299 323 324
2 300 325
3 301 325 326
3 302 326 327
3 303 327 328
3 304 328 329
3 305 329 330
3 306 330 331
3 307 331 332
3 308 332 333
3 309 333 334
3 310 334 335
3 311 335 336
3 312 336 337
3 313 337 338
3 314 338 339
3 315 339 340
3 316 340 341
3 317 341 342
3 318 342 343
3 319 343 344
3 320 344 345
3 321 345 346
3 322 346 347
3 323 347 348
3 324 348 349
2 325 350
3 326 350 351
3 327 351 352
3 328 352 353
3 329 353 354
3 330 354 355
3 331 355 356
3 332 356 357
3 333 357 358
3 334 358 359
3 335 359 360
3 336 360 361
3 337 361 362
3 338 362 363
3 339 363 364
3 340 364 365
3 341 365 366
3 342 366 367
3 343 367 368
3 344 368 369
3 345 369 370
3 346 370 371
3 347 371 372
3 348 372 373
3 349 373 374
2 350 375
3 351 375 376
3 352 376 377
3 353 377 378
3 354 378 379
3 355 379 380
3 356 380 381
3 357 381 382
3 358 382 383
3 359 383 384
3 360 384 385
3 361 385 386
3 362 386 387
3 363 387 388
3 364 388 389
3 365 389 390
3 366 390 391
3 367 391 392
3 368 392 393
3 369 393 394
3 370 394 395
3 371 395 396
3 372 396 397
3 373 397 398
3 374 398 399
2 375 400
3 376 400 401
3 377 401 402
3 378 402 403
3 379 403 404
3 380 404 405
3 381 405 406
3 382 406 407
3 383 407 408
3 384 408 409
3 385 409 410
3 386 410 411
3 387 411 412
3 388 412 413
3 389 413 414
3 390 414 415
3 391 415 416
3 392 416 417
3 393 417 418
3 394 418 419
3 395 419 420
3 396 420 421
3 397 421 422
3 398 422 423
3 399 423 424
2 400 425
3 401 425 426
3 402 426 427
3 403 427 428
3 404 428 429
3 405 429 430
3 406 430 431
3 407 431 432
3 408 432 433
3 409 433 434
3 410 434 435
3 411 435 436
3 412 436 437
3 413 437 438
3 414 438 439
3 415 439 440
3 416 440 441
3 417 441 442
3 418 442 443
3 419 443 444
3 420 444 445
3 421 445 446
3 422 446 447
3 423 447 448
3 424 448 449
2 425 450
3 426 450 451
3 427 451 452
3 428 452 453
3 429 453 454
3 430 454 455
3 431 455 456
3 432 456 457
3 433 457 458
3 434 458 459
3 435 459 460
3 436 460 461
3 437 461 462
3 438 462 463
3 439 463 464
3 440 464 465
3 441 465 466
3 442 466 467
3 443 467 468
3 444 468 469
3 445 469 470
3 446 470 471
3 447 471 472
3 448 472 473
3 449 473 474
2 450 475
3 451 475 476
3 452 476 477
3 453 477 478
3 454 478 479
3 455 479 480
3 456 480 481
3 457 481 482
3 458 482 483
3 459 483 484
3 460 484 485
3 461 485 486
3 462 486 487
3 463 487 488
3 464 488 489
3 465 489 490
3 466 490 491
3 467 491 492
3 468 492 493
3 469 493 494
3 470 494 495
3 471 495 496
3 472 496 497
3 473 497 498
3 474 498 499
2 475 500
3 476 500 501
3 477 501 502
3 478 502 503
3 479 503 504
3 480 504 505
3 481 505 506
3 482 506 507
3 483 507 508
3 484 508 509
3 485 509 510
3 486 510 511
3 487 511 512
3 488 512 513
3 489 513 514
3 490 514 515
3 491 515 516
3 492 516 517
3 493 517 518
3 494 518 519
3 495 519 520
3 496 520 521
3 497 521 522
3 498 522 523
3 499 523 524
2 500 525
3 501 525 526
3 502 526 527
3 503 527 528
3 504 528 529
3 505 529 530
3 506 530 531
3 507 531 532
3 508 532 533
3 509 533 534
3 510 534 535
3 511 535 536
3 512 536 537
3 513 537 538
3 514 538 539
3 515 539 540
3 516 540 541
3 517 541 542
3 518 542 543
3 519 543 544
3 520 544 545
3 521 545 546
3 522 546 547
3 523 547 548
3 524 548 549
2 525 550
3 526 550 551
3 527 551 552
3 528 552 553
3 529 553 554
3 530 554 555
3 531 555 556
3 532 556 557
3 533 557 558
3 534 558 559
3 535 559 560
3 536 560 561
3 537 561 562
3 538 562 563
3 539 563 564
3 540 564 565
3 541 565 566
3 542 566 567
3 543 567 568
3 544 568 569
3 545 569 570
3 546 570 571
3 547 571 572
3 548 572 573
3 549 573 574
2 550 575
3 551 575 576
3 552 576 577
3 553 577 578
3 554 578 579
3 555 579 580
3 556 580 581
3 557 581 582
3 558 582 583
3 559 583 584
3 560 584 585
3 561 585 586
3 562 586 587
3 563 587 588
3 564 588 589
3 565 589 590
3 566 590 591
3 567 591 592
3 568 592 593
3 569 593 594
3 570 594 595
3 571 595 596
3 572 596 597
3 573 597 598
3 574 598 599
2 575 600
3 576 600 601
3 577 601 602
3 578 602 603
3 579 603 604
3 580 604 605
3 581 605 606
3 582 606 607
3 583 607 608
3 584 608 609
3 585 609 610
3 586 610 611
3 587 611 612
3 588 612 613
3 589 613 614
3 590 614 615
3 591 615 616
3 592 616 617
3 593 617 618
3 594 618 619
3 595 619 620
3 596 620 621
3 597 621 622
3 598 622 623
3 599 623 624

2
0.427016 0.572984
4
0.606076 0.393924 0.678785 0.321215
4
0.923101 0.0768995 0.624877 0.375123
4
1.0 0.0 0.0 1.0
4
0.0 1.0 1.0 0.0
4
0.563109 0.436891 0.00514494 0.994855
4
0.0 1.0 1.0 0.0
4
0.591802 0.408198 0.400665 0.599335
4
0.0 1.0 1.0 0.0
4
1.0 0.0 0.0 1.0
4
0.0 1.0 1.0 0.0
4
0.156936 0.843064 0.415996 0.584004
4
0.0 1.0 1.0 0.0
4
0.0 1.0 1.0 0.0
4
0.0 1.0 1.0 0.0
4
0.0 1.0 1.0 0.0
4
1.0 0.0 0.0 1.0
4
1.0 0.0 0.0 1.0
4
1.0 0.0 0.0 1.0
4
1.0 0.0 0.0 1.0
4
1.0 0.0 0.0 1.0
4
1.0 0.0 0.0 1.0
4
0.0 1.0 1.0 0.0
4
0.0 1.0 1.0 0.0
4
0.0 1.0 1.0 0.0
4
0.0 1.0 1.0 0.0
8
0.471413 0.528587 0.0262534 0.973747 0.383591 0.616409 0.777059 0.222941
8
0.0 1.0 1.0 0.0 1.0 0.0 1.0 0.0
8
0.0692613 0.930739 0.11991 0.88009 0.228839 0.771161 0.983571 0.0164295
8
0.482147 0.517853 0.698677 0.301323 0.0876732 0.912327 0.7406 0.2594
8
1.0 0.0 0.0 1.0 1.0 0.0 1.0 0.0
8
1.0 0.0 1.0 0.0 0.0 1.0 1.0 0.0
8
0.0 1.0 0.0 1.0 1.0 0.0 0.0 1.0
8
0.420779 0.579221 0.805218 0.194782 0.787227 0.212773 0.324945 0.675055
8
1.0 0.0 0.0 1.0 0.0 1.0 1.0 0.0
8
0.0 1.0 1.0 0.0 1.0 0.0 1.0 0.0
8
0.0 1.0 1.0 0.0 1.0 0.0 1.0 0.0
8
1.0 0.0 0.0 1.0 0.0 1.0 1.0 0.0
8
1.0 0.0 1.0 0.0 1.0 0.0 0.0 1.0
8
0.357808 0.642192 0.165944 0.834056 0.759284 0.240716 0.145035 0.854965
8
1.0 0.0 0.0 1.0 1.0 0.0 1.0 0.0
8
0.262873 0.737127 0.931867 0.0681328 0.198386 0.801614 0.339327 0.660673
8
0.0 1.0 1.0 0.0 0.0 1.0 1.0 0.0
8
0.0 1.0 0.0 1.0 0.0 1.0 1.0 0.0
8
0.0 1.0 1.0 0.0 1.0 0.0 0.0 1.0
8
1.0 0.0 1.0 0.0 0.0 1.0 0.0 1.0
8
0.0 1.0 1.0 0.0 1.0 0.0 1.0 0.0
8
0.0 1.0 1.0 0.0 0.0 1.0 1.0 0.0
8
0.0 1.0 1.0 0.0 0.0 1.0 1.0 0.0
8
0.948133 0.0518668 0.982583 0.0174173 0.745111 0.254889 0.0948974 0.905103
4
0.793142 0.206858 0.228219 0.771781
8
0.0 1.0 1.0 0.0 0.0 1.0 1.0 0.0
8
1.0 0.0 0.0 1.0 1.0 0.0 1.0 0.0
8
0.106873 0.893127 0.252311 0.747689 0.578165 0.421835 0.790162 0.209838
8
0.39917 0.60083 0.812778 0.187222 0.177352 0.822648 0.574656 0.425344
8
1.0 0.0 0.0 1.0 1.0 0.0 0.0 1.0
8
1.0 0.0 1.0 0.0 1.0 0.0 0.0 1.0
8
1.0 0.0 1.0 0.0 0.0 1.0 1.0 0.0
8
0.192085 0.807915 0.740552 0.259448 0.448474 0.551526 0.746341 0.253659
8
1.0 0.0 0.0 1.0 1.0 0.0 0.0 1.0
8
0.673433 0.326567 0.158286 0.841714 0.0582379 0.941762 0.248089 0.751911
8
0.291163 0.708837 0.350336 0.649664 0.524066 0.475934 0.47222 0.52778
8
0.0 1.0 1.0 0.0 0.0 1.0 0.0 1.0
8
1.0 0.0 1.0 0.0 0.0 1.0 1.0 0.0
8
1.0 0.0 0.0 1.0 1.0 0.0 1.0 0.0
8
0.0 1.0 1.0 0.0 1.0 0.0 0.0 1.0
8
1.0 0.0 1.0 0.0 1.0 0.0 0.0 1.0
8
0.361236 0.638764 0.274768 0.725232 0.50063 0.49937 0.833456 0.166544
8
0.0 1.0 1.0 0.0 0.0 1.0 0.0 1.0
8
0.0 1.0 0.0 1.0 1.0 0.0 0.0 1.0
8
0.0 1.0 1.0 0.0 1.0 0.0 0.0 1.0
8
0.0 1.0 1.0 0.0 0.0 1.0 0.0 1.0
8
1.0 0.0 0.0 1.0 0.0 1.0 0.0 1.0
8
0.0 1.0 1.0 0.0 0.0 1.0 0.0 1.0
8
0.678394 0.321606 0.677306 0.322694 0.0670125 0.932988 0.963993 0.0360075
4
1.0 0.0 0.0 1.0
8
0.0 1.0 1.0 0.0 1.0 0.0 0.0 1.0
8
0.490526 0.509474 0.118414 0.881586 0.963976 0.0360238 0.832228 0.167772
8
1.0 0.0 1.0 0.0 0.0 1.0 1.0 0.0
8
0.360191 0.639809 0.456138 0.543862 0.00999556 0.990004 0.970077 0.0299232
8
1.0 0.0 1.0 0.0 0.0 1.0 0.0 1.0
8
0.0 1.0 1.0 0.0 1.0 0.0 0.0 1.0
8
0.0 1.0 1.0 0.0 0.0 1.0 0.0 1.0
8
1.0 0.0 0.0 1.0 1.0 0.0 1.0 0.0
8
1.0 0.0 0.0 1.0 1.0 0.0 1.0 0.0
8
1.0 0.0 0.0 1.0 0.0 1.0 0.0 1.0
8
0.0 1.0 1.0 0.0 0.0 1.0 0.0 1.0
8
1.0 0.0 0.0 1.0 1.0 0.0 0.0 1.0
8
0.402229 0.597771 0.846278 0.153722 0.285002 0.714998 0.859055 0.140945
8
0.0 1.0 0.0 1.0 1.0 0.0 1.0 0.0
8
1.0 0.0 1.0 0.0 0.0 1.0 0.0 1.0
8
1.0 0.0 1.0 0.0 0.0 1.0 0.0 1.0
8
0.212023 0.787977 0.850624 0.149376 0.248003 0.751997 0.463138 0.536862
8
0.388967 0.611033 0.422782 0.577218 0.336305 0.663695 0.459113 0.540887
8
0.0 1.0 1.0 0.0 0.0 1.0 0.0 1.0
8
1.0 0.0 0.0 1.0 0.0 1.0 0.0 1.0
8
0.0 1.0 1.0 0.0 1.0 0.0 0.0 1.0
8
1.0 0.0 1.0 0.0 1.0 0.0 0.0 1.0
8
1.0 0.0 0.0 1.0 1.0 0.0 1.0 0.0
8
0.0 1.0 0.0 1.0 1.0 0.0 1.0 0.0
4
0.0 1.0 1.0 0.0
8
0.12886 0.87114 0.56523 0.43477 0.509527 0.490473 0.242209 0.757791
8
0.52469 0.47531 0.424053 0.575947 0.34383 0.65617 0.234306 0.765694
8
1.0 0.0 0.0 1.0 0.0 1.0 1.0 0.0
8
1.0 0.0 1.0 0.0 0.0 1.0 1.0 0.0
8
0.0 1.0 0.0 1.0 1.0 0.0 0.0 1.0
8
0.0 1.0 0.0 1.0 1.0 0.0 1.0 0.0
8
1.0 0.0 0.0 1.0 1.0 0.0 0.0 1.0
8
1.0 0.0 0.0 1.0 0.0 1.0 1.0 0.0
8
0.0 1.0 1.0 0.0 1.0 0.0 0.0 1.0
8
0.0 1.0 1.0 0.0 0.0 1.0 0.0 1.0
8
0.163115 0.836885 0.0762629 0.923737 0.157804 0.842196 0.00360097 0.996399
8
1.0 0.0 0.0 1.0 1.0 0.0 0.0 1.0
8
0.0 1.0 0.0 1.0 0.0 1.0 1.0 0.0
8
0.0 1.0 1.0 0.0 0.0 1.0 1.0 0.0
8
0.362775 0.637225 0.638662 0.361338 0.0374348 0.962565 0.578137 0.421863
8
1.0 0.0 1.0 0.0 0.0 1.0 1.0 0.0
8
0.192367 0.807633 0.491062 0.508938 0.909361 0.0906392 0.350171 0.649829
8
1.0 0.0 0.0 1.0 0.0 1.0 1.0 0.0
8
1.0 0.0 1.0 0.0 1.0 0.0 0.0 1.0
8
0.0 1.0 0.0 1.0 1.0 0.0 1.0 0.0
8
0.0 1.0 0.0 1.0 0.0 1.0 1.0 0.0
8
1.0 0.0 1.0 0.0 0.0 1.0 0.0 1.0
8
0.701679 0.298321 0.710127 0.289873 0.873749 0.126251 0.0518502 0.94815
8
1.0 0.0 0.0 1.0 1.0 0.0 0.0 1.0
4
0.0 1.0 1.0 0.0
8
0.0 1.0 0.0 1.0 0.0 1.0 1.0 0.0
8
0.0 1.0 1.0 0.0 1.0 0.0 1.0 0.0
8
0.265018 0.734982 0.401178 0.598822 0.37185 0.62815 0.36804 0.63196
8
1.0 0.0 0.0 1.0 1.0 0.0 0.0 1.0
8
1.0 0.0 0.0 1.0 0.0 1.0 0.0 1.0
8
1.0 0.0 1.0 0.0 1.0 0.0 0.0 1.0
8
0.275921 0.724079 0.313889 0.686111 0.0239469 0.976053 0.687158 0.312842
8
1.0 0.0 1.0 0.0 1.0 0.0 0.0 1.0
8
0.0 1.0 0.0 1.0 0.0 1.0 1.0 0.0
8
1.0 0.0 0.0 1.0 1.0 0.0 0.0 1.0
8
0.985164 0.0148361 0.889841 0.110159 0.258625 0.741375 0.616045 0.383955
8
0.0 1.0 1.0 0.0 0.0 1.0 1.0 0.0
8
0.0 1.0 1.0 0.0 1.0 0.0 1.0 0.0
8
1.0 0.0 1.0 0.0 0.0 1.0 1.0 0.0
8
0.0 1.0 1.0 0.0 1.0 0.0 0.0 1.0
8
1.0 0.0 1.0 0.0 1.0 0.0 0.0 1.0
8
0.0 1.0 0.0 1.0 1.0 0.0 1.0 0.0
8
0.879262 0.120738 0.766922 0.233078 0.694035 0.305965 0.0929894 0.907011
8
0.0614842 0.938516 0.271476 0.728524 0.322538 0.677462 0.742823 0.257177
8
0.0 1.0 1.0 0.0 0.0 1.0 0.0 1.0
8
1.0 0.0 0.0 1.0 1.0 0.0 1.0 0.0
8
0.564909 0.435091 0.0731211 0.926879 0.781371 0.218629 0.641411 0.358589
8
0.0 1.0 1.0 0.0 1.0 0.0 0.0 1.0
8
0.429964 0.570036 0.897075 0.102925 0.654657 0.345343 0.123999 0.876001
4
0.561426 0.438574 0.185483 0.814517
8
0.0 1.0 0.0 1.0 1.0 0.0 0.0 1.0
8
1.0 0.0 0.0 1.0 1.0 0.0 0.0 1.0
8
1.0 0.0 1.0 0.0 0.0 1.0 1.0 0.0
8
0.0 1.0 0.0 1.0 0.0 1.0 1.0 0.0
8
0.0 1.0 1.0 0.0 1.0 0.0 1.0 0.0
8
1.0 0.0 0.0 1.0 1.0 0.0 0.0 1.0
8
1.0 0.0 1.0 0.0 1.0 0.0 0.0 1.0
8
0.0 1.0 0.0 1.0 0.0 1.0 1.0 0.0
8
0.939249 0.0607513 0.545395 0.454605 0.813867 0.186133 0.781965 0.218035
8
0.0 1.0 0.0 1.0 0.0 1.0 1.0 0.0
8
1.0 0.0 0.0 1.0 0.0 1.0 0.0 1.0
8
0.0 1.0 1.0 0.0 0.0 1.0 1.0 0.0
8
1.0 0.0 0.0 1.0 1.0 0.0 0.0 1.0
8
0.793836 0.206164 0.206598 0.793402 0.472598 0.527402 0.455277 0.544723
8
1.0 0.0 0.0 1.0 0.0 1.0 0.0 1.0
8
0.695572 0.304428 0.442583 0.557417 0.132996 0.867004 0.445909 0.554091
8
0.92284 0.0771602 0.40963 0.59037 0.220665 0.779335 0.7154 0.2846
8
1.0 0.0 1.0 0.0 1.0 0.0 0.0 1.0
8
0.195286 0.804714 0.937403 0.0625975 0.338125 0.661875 0.829569 0.170431
8
1.0 0.0 0.0 1.0 0.0 1.0 1.0 0.0
8
1.0 0.0 1.0 0.0 0.0 1.0 1.0 0.0
8
1.0 0.0 1.0 0.0 0.0 1.0 1.0 0.0
8
0.428898 0.571102 0.861778 0.138222 0.230216 0.769784 0.649563 0.350437
8
0.0 1.0 1.0 0.0 1.0 0.0 1.0 0.0
4
0.0 1.0 1.0 0.0
8
0.0 1.0 0.0 1.0 1.0 0.0 0.0 1.0
8
1.0 0.0 0.0 1.0 1.0 0.0 1.0 0.0
8
0.117087 0.882913 0.514009 0.485991 0.582188 0.417812 0.27534 0.72466
8
1.0 0.0 1.0 0.0 0.0 1.0 1.0 0.0
8
1.0 0.0 0.0 1.0 0.0 1.0 1.0 0.0
8
1.0 0.0 1.0 0.0 0.0 1.0 1.0 0.0
8
0.662069 0.337931 0.771154 0.228846 0.403828 0.596172 0.0594676 0.940532
8
0.951915 0.0480851 0.493034 0.506966 0.289355 0.710645 0.0872393 0.912761
8
1.0 0.0 1.0 0.0 0.0 1.0 0.0 1.0
8
1.0 0.0 0.0 1.0 1.0 0.0 1.0 0.0
8
0.0 1.0 1.0 0.0 0.0 1.0 1.0 0.0
8
0.0 1.0 0.0 1.0 0.0 1.0 1.0 0.0
8
0.994609 0.00539103 0.622454 0.377546 0.329595 0.670405 0.0540766 0.945923
8
0.0 1.0 1.0 0.0 0.0 1.0 1.0 0.0
8
1.0 0.0 0.0 1.0 0.0 1.0 1.0 0.0
8
1.0 0.0 1.0 0.0 1.0 0.0 0.0 1.0
8
1.0 0.0 0.0 1.0 1.0 0.0 0.0 1.0
8
0.798781 0.201219 0.179853 0.820147 0.752907 0.247093 0.131322 0.868678
8
0.0 1.0 1.0 0.0 1.0 0.0 0.0 1.0
8
1.0 0.0 0.0 1.0 1.0 0.0 1.0 0.0
8
1.0 0.0 1.0 0.0 0.0 1.0 0.0 1.0
8
0.284345 0.715655 0.932456 0.0675441 0.404209 0.595791 0.692929 0.307071
8
1.0 0.0 1.0 0.0 0.0 1.0 1.0 0.0
8
0.0 1.0 0.0 1.0 1.0 0.0 1.0 0.0
4
0.658486 0.341514 0.4213 0.5787
8
0.0 1.0 0.0 1.0 0.0 1.0 1.0 0.0
8
1.0 0.0 1.0 0.0 0.0 1.0 1.0 0.0
8
0.0 1.0 1.0 0.0 0.0 1.0 0.0 1.0
8
0.88906 0.11094 0.586751 0.413249 0.370174 0.629826 0.337142 0.662858
8
1.0 0.0 0.0 1.0 1.0 0.0 1.0 0.0
8
1.0 0.0 0.0 1.0 1.0 0.0 1.0 0.0
8
0.0 1.0 1.0 0.0 0.0 1.0 0.0 1.0
8
0.847613 0.152387 0.372628 0.627372 0.457041 0.542959 0.225487 0.774513
8
0.0 1.0 0.0 1.0 0.0 1.0 1.0 0.0
8
0.446527 0.553473 0.315537 0.684463 0.136834 0.863166 0.783669 0.216331
8
0.0 1.0 0.0 1.0 1.0 0.0 1.0 0.0
8
0.0 1.0 0.0 1.0 0.0 1.0 1.0 0.0
8
1.0 0.0 1.0 0.0 0.0 1.0 1.0 0.0
8
0.0 1.0 1.0 0.0 0.0 1.0 1.0 0.0
8
0.0 1.0 1.0 0.0 0.0 1.0 0.0 1.0
8
0.591107 0.408893 0.803382 0.196618 0.273408 0.726592 0.727941 0.272059
8
1.0 0.0 0.0 1.0 1.0 0.0 0.0 1.0
8
1.0 0.0 0.0 1.0 1.0 0.0 1.0 0.0
8
1.0 0.0 0.0 1.0 1.0 0.0 1.0 0.0
8
0.884895 0.115105 0.802953 0.197047 0.138742 0.861258 0.611668 0.388332
8
0.0 1.0 1.0 0.0 0.0 1.0 0.0 1.0
8
0.38403 0.61597 0.593852 0.406148 0.571293 0.428707 0.657438 0.342562
8
1.0 0.0 0.0 1.0 1.0 0.0 1.0 0.0
8
0.358108 0.641892 0.873614 0.126386 0.279945 0.720055 0.478652 0.521348
4
1.0 0.0 0.0 1.0
8
0.15001 0.84999 0.147842 0.852158 0.42627 0.57373 0.984775 0.0152246
8
1.0 0.0 1.0 0.0 0.0 1.0 0.0 1.0
8
1.0 0.0 1.0 0.0 0.0 1.0 1.0 0.0
8
1.0 0.0 1.0 0.0 1.0 0.0 0.0 1.0
8
0.0 1.0 0.0 1.0 0.0 1.0 1.0 0.0
8
0.0 1.0 0.0 1.0 1.0 0.0 1.0 0.0
8
1.0 0.0 0.0 1.0 1.0 0.0 1.0 0.0
8
1.0 0.0 1.0 0.0 0.0 1.0 1.0 0.0
8
1.0 0.0 0.0 1.0 0.0 1.0 0.0 1.0
8
0.311074 0.688926 0.395666 0.604334 0.645193 0.354807 0.531279 0.468721
8
0.134681 0.865319 0.483104 0.516896 0.376456 0.623544 0.619235 0.380765
8
0.677849 0.322151 0.383735 0.616265 0.581622 0.418378 0.225834 0.774166
8
1.0 0.0 0.0 1.0 1.0 0.0 0.0 1.0
8
0.0 1.0 1.0 0.0 0.0 1.0 0.0 1.0
8
1.0 0.0 0.0 1.0 1.0 0.0 1.0 0.0
8
0.333373 0.666627 0.244727 0.755273 0.300145 0.699855 0.978567 0.0214334
8
0.248822 0.751178 0.113247 0.886753 0.259109 0.740891 0.625278 0.374722
8
1.0 0.0 1.0 0.0 1.0 0.0 0.0 1.0
8
0.0 1.0 1.0 0.0 0.0 1.0 1.0 0.0
8
0.0593893 0.940611 0.526751 0.473249 0.369885 0.630115 0.472276 0.527724
8
0.0 1.0 1.0 0.0 0.0 1.0 1.0 0.0
8
0.060563 0.939437 0.352685 0.647315 0.171645 0.828355 0.360708 0.639292
8
0.0 1.0 1.0 0.0 1.0 0.0 0.0 1.0
8
1.0 0.0 1.0 0.0 1.0 0.0 0.0 1.0
4
1.0 0.0 0.0 1.0
8
1.0 0.0 1.0 0.0 0.0 1.0 0.0 1.0
8
1.0 0.0 0.0 1.0 1.0 0.0 1.0 0.0
8
0.0 1.0 0.0 1.0 0.0 1.0 1.0 0.0
8
0.143181 0.856819 0.370101 0.629899 0.16383 0.83617 0.0908314 0.909169
8
0.608328 0.391672 0.297591 0.702409 0.21444 0.78556 0.78531 0.21469
8
0.0 1.0 1.0 0.0 0.0 1.0 1.0 0.0
8
0.0 1.0 0.0 1.0 1.0 0.0 0.0 1.0
8
0.722368 0.277632 0.81464 0.18536 0.969389 0.0306113 0.515113 0.484887
8
0.0 1.0 0.0 1.0 1.0 0.0 0.0 1.0
8
1.0 0.0 0.0 1.0 1.0 0.0 0.0 1.0
8
1.0 0.0 0.0 1.0 0.0 1.0 0.0 1.0
8
0.0 1.0 0.0 1.0 1.0 0.0 0.0 1.0
8
0.0 1.0 1.0 0.0 1.0 0.0 1.0 0.0
8
1.0 0.0 0.0 1.0 1.0 0.0 0.0 1.0
8
0.541714 0.458286 0.84955 0.15045 0.276159 0.723841 0.296831 0.703169
8
0.749494 0.250506 0.884527 0.115473 0.963817 0.0361826 0.592931 0.407069
8
1.0 0.0 1.0 0.0 0.0 1.0 1.0 0.0
8
0.0 1.0 1.0 0.0 1.0 0.0 0.0 1.0
8
0.0 1.0 0.0 1.0 1.0 0.0 1.0 0.0
8
0.0 1.0 1.0 0.0 1.0 0.0 1.0 0.0
8
1.0 0.0 1.0 0.0 0.0 1.0 1.0 0.0
8
0.0 1.0 0.0 1.0 1.0 0.0 0.0 1.0
8
0.0 1.0 1.0 0.0 0.0 1.0 0.0 1.0
8
0.0 1.0 1.0 0.0 1.0 0.0 1.0 0.0
4
1.0 0.0 0.0 1.0
8
1.0 0.0 0.0 1.0 1.0 0.0 0.0 1.0
8
0.0 1.0 0.0 1.0 0.0 1.0 1.0 0.0
8
0.0 1.0 1.0 0.0 1.0 0.0 0.0 1.0
8
0.27982 0.72018 0.684951 0.315049 0.940674 0.0593257 0.314854 0.685146
8
0.0 1.0 1.0 0.0 1.0 0.0 1.0 0.0
8
0.518742 0.481258 0.0545543 0.945446 0.968618 0.0313817 0.544081 0.455919
8
1.0 0.0 0.0 1.0 0.0 1.0 0.0 1.0
8
0.229607 0.770393 0.653658 0.346342 0.85812 0.14188 0.925978 0.0740216
8
1.0 0.0 1.0 0.0 0.0 1.0 1.0 0.0
8
0.0 1.0 1.0 0.0 1.0 0.0 1.0 0.0
8
0.0 1.0 1.0 0.0 1.0 0.0 0.0 1.0
8
1.0 0.0 1.0 0.0 0.0 1.0 0.0 1.0
8
0.360754 0.639246 0.3567 0.6433 0.736796 0.263204 0.865653 0.134347
8
0.0 1.0 0.0 1.0 1.0 0.0 0.0 1.0
8
0.0 1.0 1.0 0.0 1.0 0.0 1.0 0.0
8
0.0 1.0 1.0 0.0 1.0 0.0 1.0 0.0
8
0.191897 0.808103 0.957831 0.0421689 0.387437 0.612563 0.115685 0.884315
8
0.0 1.0 1.0 0.0 0.0 1.0 0.0 1.0
8
1.0 0.0 0.0 1.0 1.0 0.0 1.0 0.0
8
0.0 1.0 0.0 1.0 1.0 0.0 1.0 0.0
8
1.0 0.0 1.0 0.0 0.0 1.0 0.0 1.0
8
0.0 1.0 0.0 1.0 0.0 1.0 1.0 0.0
8
1.0 0.0 0.0 1.0 0.0 1.0 1.0 0.0
8
0.0 1.0 1.0 0.0 1.0 0.0 0.0 1.0
4
1.0 0.0 0.0 1.0
8
1.0 0.0 0.0 1.0 1.0 0.0 1.0 0.0
8
0.463279 0.536721 0.613701 0.386299 0.0197555 0.980244 0.551805 0.448195
8
0.501619 0.498381 0.872523 0.127477 0.776532 0.223468 0.00581593 0.994184
8
1.0 0.0 1.0 0.0 0.0 1.0 1.0 0.0
8
0.0 1.0 1.0 0.0 1.0 0.0 1.0 0.0
8
0.0 1.0 1.0 0.0 1.0 0.0 0.0 1.0
8
0.0 1.0 1.0 0.0 0.0 1.0 0.0 1.0
8
0.0 1.0 0.0 1.0 1.0 0.0 0.0 1.0
8
1.0 0.0 1.0 0.0 0.0 1.0 1.0 0.0
8
0.0 1.0 1.0 0.0 0.0 1.0 1.0 0.0
8
0.187821 0.812179 0.386004 0.613996 0.920275 0.0797248 0.189715 0.810285
8
0.513203 0.486797 0.243744 0.756256 0.307398 0.692602 0.143524 0.856476
8
0.366914 0.633086 0.0409794 0.959021 0.121791 0.878209 0.247297 0.752703
8
0.0 1.0 0.0 1.0 1.0 0.0 1.0 0.0
8
0.0 1.0 0.0 1.0 0.0 1.0 1.0 0.0
8
1.0 0.0 1.0 0.0 0.0 1.0 1.0 0.0
8
1.0 0.0 0.0 1.0 0.0 1.0 0.0 1.0
8
0.0 1.0 1.0 0.0 0.0 1.0 1.0 0.0
8
0.0808043 0.919196 0.720107 0.279893 0.0127931 0.987207 0.328101 0.671899
8
0.0 1.0 1.0 0.0 1.0 0.0 1.0 0.0
8
1.0 0.0 1.0 0.0 1.0 0.0 0.0 1.0
8
0.0 1.0 1.0 0.0 0.0 1.0 1.0 0.0
8
1.0 0.0 0.0 1.0 1.0 0.0 1.0 0.0
8
0.0 1.0 1.0 0.0 0.0 1.0 0.0 1.0
4
0.31146 0.68854 0.793869 0.206131
8
1.0 0.0 0.0 1.0 0.0 1.0 1.0 0.0
8
1.0 0.0 0.0 1.0 0.0 1.0 1.0 0.0
8
1.0 0.0 1.0 0.0 0.0 1.0 1.0 0.0
8
0.215388 0.784612 0.691557 0.308443 0.0080463 0.991954 0.912409 0.0875907
8
0.0 1.0 1.0 0.0 0.0 1.0 0.0 1.0
8
0.88434 0.11566 0.312968 0.687032 0.821007 0.178993 0.1958 0.8042
8
1.0 0.0 0.0 1.0 1.0 0.0 1.0 0.0
8
0.826315 0.173685 0.463499 0.536501 0.412109 0.587891 0.448553 0.551447
8
1.0 0.0 0.0 1.0 1.0 0.0 0.0 1.0
8
0.898638 0.101362 0.503914 0.496086 0.650076 0.349924 0.906684 0.0933157
8
0.0 1.0 0.0 1.0 1.0 0.0 0.0 1.0
8
1.0 0.0 0.0 1.0 1.0 0.0 1.0 0.0
8
0.0 1.0 1.0 0.0 0.0 1.0 1.0 0.0
8
0.582242 0.417758 0.946127 0.053873 0.201286 0.798714 0.0307954 0.969205
8
0.0 1.0 1.0 0.0 0.0 1.0 0.0 1.0
8
1.0 0.0 0.0 1.0 0.0 1.0 1.0 0.0
8
1.0 0.0 0.0 1.0 1.0 0.0 1.0 0.0
8
0.0 1.0 0.0 1.0 0.0 1.0 1.0 0.0
8
1.0 0.0 1.0 0.0 1.0 0.0 0.0 1.0
8
0.477296 0.522704 0.0903995 0.909601 0.917974 0.0820259 0.634465 0.365535
8
0.00105842 0.998942 0.81602 0.18398 0.117566 0.882434 0.042662 0.957338
8
0.779325 0.220675 0.734341 0.265659 0.883091 0.116909 0.857407 0.142593
8
1.0 0.0 0.0 1.0 0.0 1.0 1.0 0.0
8
0.0 1.0 1.0 0.0 0.0 1.0 0.0 1.0
4
1.0 0.0 0.0 1.0
8
1.0 0.0 0.0 1.0 0.0 1.0 1.0 0.0
8
0.188734 0.811266 0.659975 0.340025 0.553617 0.446383 0.148453 0.851547
8
1.0 0.0 0.0 1.0 0.0 1.0 1.0 0.0
8
0.0 1.0 1.0 0.0 0.0 1.0 0.0 1.0
8
0.636085 0.363915 0.505311 0.494689 0.93128 0.0687196 0.507118 0.492882
8
1.0 0.0 1.0 0.0 0.0 1.0 0.0 1.0
8
0.910896 0.0891036 0.145971 0.854029 0.923957 0.0760427 0.652897 0.347103
8
0.0 1.0 1.0 0.0 0.0 1.0 0.0 1.0
8
0.988378 0.0116219 0.527163 0.472837 0.677602 0.322398 0.25423 0.74577
8
1.0 0.0 1.0 0.0 0.0 1.0 1.0 0.0
8
0.0 1.0 1.0 0.0 1.0 0.0 1.0 0.0
8
0.0863586 0.913641 0.536913 0.463087 0.997069 0.00293088 0.790473 0.209527
8
1.0 0.0 0.0 1.0 0.0 1.0 1.0 0.0
8
1.0 0.0 0.0 1.0 0.0 1.0 0.0 1.0
8
0.0 1.0 1.0 0.0 1.0 0.0 1.0 0.0
8
0.0 1.0 0.0 1.0 1.0 0.0 0.0 1.0
8
0.63039 0.36961 0.88984 0.11016 0.752093 0.247907 0.571385 0.428615
8
0.289007 0.710993 0.568454 0.431546 0.766671 0.233329 0.651543 0.348457
8
0.0 1.0 1.0 0.0 0.0 1.0 1.0 0.0
8
0.0 1.0 1.0 0.0 1.0 0.0 1.0 0.0
8
0.185042 0.814958 0.283904 0.716096 0.796587 0.203413 0.94504 0.0549597
8
0.0626738 0.937326 0.180297 0.819703 0.342976 0.657024 0.258256 0.741744
8
0.174559 0.825441 0.888646 0.111354 0.667045 0.332955 0.926652 0.0733478
8
1.0 0.0 1.0 0.0 1.0 0.0 0.0 1.0
4
0.504905 0.495095 0.11303 0.88697
8
0.542187 0.457813 0.817711 0.182289 0.142459 0.857541 0.453206 0.546794
8
1.0 0.0 0.0 1.0 0.0 1.0 1.0 0.0
8
1.0 0.0 0.0 1.0 0.0 1.0 1.0 0.0
8
1.0 0.0 0.0 1.0 0.0 1.0 0.0 1.0
8
0.0 1.0 0.0 1.0 0.0 1.0 1.0 0.0
8
0.0 1.0 0.0 1.0 1.0 0.0 0.0 1.0
8
0.618144 0.381856 0.878534 0.121466 0.895301 0.104699 0.0713497 0.92865
8
0.0 1.0 0.0 1.0 1.0 0.0 0.0 1.0
8
0.970565 0.0294351 0.63045 0.36955 0.199541 0.800459 0.906198 0.093802
8
0.0 1.0 1.0 0.0 0.0 1.0 0.0 1.0
8
0.0 1.0 1.0 0.0 1.0 0.0 0.0 1.0
8
1.0 0.0 0.0 1.0 0.0 1.0 1.0 0.0
8
0.0 1.0 1.0 0.0 0.0 1.0 0.0 1.0
8
1.0 0.0 1.0 0.0 0.0 1.0 1.0 0.0
8
0.0 1.0 1.0 0.0 0.0 1.0 0.0 1.0
8
0.0 1.0 1.0 0.0 0.0 1.0 1.0 0.0
8
0.0605036 0.939496 0.953576 0.0464237 0.631598 0.368402 0.801448 0.198552
8
0.927839 0.0721607 0.490187 0.509813 0.593798 0.406202 0.300037 0.699963
8
1.0 0.0 1.0 0.0 0.0 1.0 0.0 1.0
8
0.0 1.0 1.0 0.0 0.0 1.0 0.0 1.0
8
0.820871 0.179129 0.981611 0.0183895 0.365867 0.634133 0.144304 0.855696
8
1.0 0.0 1.0 0.0 0.0 1.0 1.0 0.0
8
1.0 0.0 0.0 1.0 0.0 1.0 1.0 0.0
8
1.0 0.0 1.0 0.0 0.0 1.0 1.0 0.0
4
1.0 0.0 0.0 1.0
8
1.0 0.0 1.0 0.0 0.0 1.0 0.0 1.0
8
1.0 0.0 0.0 1.0 0.0 1.0 0.0 1.0
8
0.0124295 0.987571 0.399582 0.600418 0.600252 0.399748 0.927306 0.0726939
8
0.929346 0.0706535 0.699621 0.300379 0.44887 0.55113 0.164849 0.835151
8
1.0 0.0 1.0 0.0 1.0 0.0 0.0 1.0
8
0.29116 0.70884 0.358603 0.641397 0.921868 0.0781325 0.655363 0.344637
8
0.0 1.0 1.0 0.0 0.0 1.0 0.0 1.0
8
0.0 1.0 1.0 0.0 0.0 1.0 0.0 1.0
8
1.0 0.0 1.0 0.0 0.0 1.0 0.0 1.0
8
1.0 0.0 0.0 1.0 1.0 0.0 0.0 1.0
8
1.0 0.0 1.0 0.0 0.0 1.0 0.0 1.0
8
0.198198 0.801802 0.178885 0.821115 0.185573 0.814427 0.120065 0.879935
8
0.650466 0.349534 0.42729 0.57271 0.721659 0.278341 0.804257 0.195743
8
1.0 0.0 0.0 1.0 0.0 1.0 0.0 1.0
8
1.0 0.0 0.0 1.0 0.0 1.0 0.0 1.0
8
1.0 0.0 0.0 1.0 1.0 0.0 1.0 0.0
8
0.0 1.0 0.0 1.0 0.0 1.0 1.0 0.0
8
1.0 0.0 0.0 1.0 1.0 0.0 1.0 0.0
8
1.0 0.0 1.0 0.0 1.0 0.0 0.0 1.0
8
1.0 0.0 0.0 1.0 0.0 1.0 1.0 0.0
8
1.0 0.0 1.0 0.0 1.0 0.0 0.0 1.0
8
0.0 1.0 1.0 0.0 0.0 1.0 1.0 0.0
8
1.0 0.0 1.0 0.0 0.0 1.0 0.0 1.0
8
1.0 0.0 0.0 1.0 0.0 1.0 1.0 0.0
4
1.0 0.0 0.0 1.0
8
0.0 1.0 1.0 0.0 0.0 1.0 0.0 1.0
8
0.0 1.0 1.0 0.0 1.0 0.0 0.0 1.0
8
0.0 1.0 1.0 0.0 1.0 0.0 1.0 0.0
8
0.0882794 0.911721 0.172948 0.827052 0.362032 0.637968 0.330226 0.669774
8
1.0 0.0 0.0 1.0 0.0 1.0 0.0 1.0
8
0.0 1.0 0.0 1.0 0.0 1.0 1.0 0.0
8
1.0 0.0 0.0 1.0 1.0 0.0 1.0 0.0
8
1.0 0.0 0.0 1.0 1.0 0.0 0.0 1.0
8
0.0 1.0 0.0 1.0 1.0 0.0 1.0 0.0
8
1.0 0.0 0.0 1.0 0.0 1.0 1.0 0.0
8
1.0 0.0 0.0 1.0 0.0 1.0 1.0 0.0
8
0.976077 0.023923 0.410984 0.589016 0.0497723 0.950228 0.447824 0.552176
8
1.0 0.0 1.0 0.0 1.0 0.0 0.0 1.0
8
1.0 0.0 1.0 0.0 0.0 1.0 1.0 0.0
8
0.0 1.0 1.0 0.0 1.0 0.0 0.0 1.0
8
0.0 1.0 1.0 0.0 0.0 1.0 1.0 0.0
8
0.0 1.0 1.0 0.0 0.0 1.0 0.0 1.0
8
0.0 1.0 1.0 0.0 0.0 1.0 0.0 1.0
8
0.766964 0.233036 0.881064 0.118936 0.926385 0.0736154 0.55244 0.44756
8
0.0 1.0 0.0 1.0 0.0 1.0 1.0 0.0
8
0.0 1.0 0.0 1.0 1.0 0.0 0.0 1.0
8
1.0 0.0 0.0 1.0 1.0 0.0 0.0 1.0
8
1.0 0.0 0.0 1.0 1.0 0.0 0.0 1.0
8
1.0 0.0 0.0 1.0 1.0 0.0 0.0 1.0
4
0.608315 0.391685 0.475318 0.524682
8
0.5347 0.4653 0.0277577 0.972242 0.0573576 0.942642 0.0640102 0.93599
8
0.890578 0.109422 0.275167 0.724833 0.97392 0.0260801 0.937704 0.0622961
8
1.0 0.0 1.0 0.0 0.0 1.0 0.0 1.0
8
1.0 0.0 1.0 0.0 0.0 1.0 1.0 0.0
8
1.0 0.0 1.0 0.0 1.0 0.0 0.0 1.0
8
1.0 0.0 0.0 1.0 1.0 0.0 1.0 0.0
8
0.0 1.0 0.0 1.0 1.0 0.0 0.0 1.0
8
0.0 1.0 1.0 0.0 1.0 0.0 1.0 0.0
8
0.0 1.0 1.0 0.0 0.0 1.0 1.0 0.0
8
1.0 0.0 0.0 1.0 1.0 0.0 0.0 1.0
8
0.0 1.0 1.0 0.0 1.0 0.0 0.0 1.0
8
0.0 1.0 1.0 0.0 1.0 0.0 1.0 0.0
8
1.0 0.0 0.0 1.0 0.0 1.0 0.0 1.0
8
0.0 1.0 1.0 0.0 1.0 0.0 1.0 0.0
8
0.0 1.0 0.0 1.0 0.0 1.0 1.0 0.0
8
0.194304 0.805696 0.956017 0.0439832 0.952805 0.0471951 0.00364601 0.996354
8
0.0 1.0 0.0 1.0 1.0 0.0 1.0 0.0
8
1.0 0.0 0.0 1.0 0.0 1.0 1.0 0.0
8
1.0 0.0 1.0 0.0 0.0 1.0 1.0 0.0
8
0.0 1.0 0.0 1.0 1.0 0.0 1.0 0.0
8
0.0 1.0 1.0 0.0 0.0 1.0 0.0 1.0
8
1.0 0.0 0.0 1.0 1.0 0.0 0.0 1.0
8
0.0 1.0 0.0 1.0 1.0 0.0 1.0 0.0
8
0.0 1.0 1.0 0.0 1.0 0.0 1.0 0.0
4
1.0 0.0 0.0 1.0
8
1.0 0.0 0.0 1.0 1.0 0.0 1.0 0.0
8
1.0 0.0 0.0 1.0 0.0 1.0 1.0 0.0
8
0.0 1.0 1.0 0.0 0.0 1.0 0.0 1.0
8
0.0 1.0 0.0 1.0 1.0 0.0 0.0 1.0
8
0.0 1.0 1.0 0.0 0.0 1.0 1.0 0.0
8
1.0 0.0 1.0 0.0 0.0 1.0 0.0 1.0
8
1.0 0.0 1.0 0.0 0.0 1.0 1.0 0.0
8
1.0 0.0 0.0 1.0 1.0 0.0 0.0 1.0
8
1.0 0.0 0.0 1.0 0.0 1.0 1.0 0.0
8
0.0595623 0.940438 0.475244 0.524756 0.765578 0.234422 0.593902 0.406098
8
0.954603 0.0453971 0.650572 0.349428 0.443326 0.556674 0.390991 0.609009
8
1.0 0.0 0.0 1.0 0.0 1.0 0.0 1.0
8
0.0 1.0 1.0 0.0 0.0 1.0 0.0 1.0
8
1.0 0.0 0.0 1.0 0.0 1.0 0.0 1.0
8
1.0 0.0 1.0 0.0 0.0 1.0 0.0 1.0
8
1.0 0.0 0.0 1.0 0.0 1.0 1.0 0.0
8
1.0 0.0 0.0 1.0 1.0 0.0 0.0 1.0
8
0.0 1.0 0.0 1.0 1.0 0.0 0.0 1.0
8
0.0 1.0 1.0 0.0 1.0 0.0 1.0 0.0
8
0.0 1.0 1.0 0.0 0.0 1.0 0.0 1.0
8
0.0 1.0 1.0 0.0 1.0 0.0 0.0 1.0
8
1.0 0.0 0.0 1.0 0.0 1.0 0.0 1.0
8
1.0 0.0 0.0 1.0 0.0 1.0 0.0 1.0
8
0.0 1.0 1.0 0.0 0.0 1.0 1.0 0.0
4
1.0 0.0 0.0 1.0
8
0.0 1.0 1.0 0.0 1.0 0.0 1.0 0.0
8
1.0 0.0 0.0 1.0 0.0 1.0 1.0 0.0
8
0.0 1.0 1.0 0.0 0.0 1.0 0.0 1.0
8
0.0 1.0 1.0 0.0 0.0 1.0 1.0 0.0
8
0.0 1.0 1.0 0.0 1.0 0.0 0.0 1.0
8
1.0 0.0 0.0 1.0 0.0 1.0 0.0 1.0
8
0.0 1.0 1.0 0.0 1.0 0.0 0.0 1.0
8
0.182455 0.817545 0.815611 0.184389 0.277221 0.722779 0.787008 0.212992
8
1.0 0.0 1.0 0.0 1.0 0.0 0.0 1.0
8
1.0 0.0 1.0 0.0 0.0 1.0 0.0 1.0
8
1.0 0.0 1.0 0.0 0.0 1.0 1.0 0.0
8
0.0 1.0 1.0 0.0 0.0 1.0 0.0 1.0
8
1.0 0.0 0.0 1.0 0.0 1.0 1.0 0.0
8
1.0 0.0 0.0 1.0 1.0 0.0 1.0 0.0
8
0.683801 0.316199 0.226617 0.773383 0.16688 0.83312 0.282674 0.717326
8
0.648378 0.351622 0.335526 0.664474 0.268532 0.731468 0.172524 0.827476
8
0.0 1.0 0.0 1.0 1.0 0.0 0.0 1.0
8
1.0 0.0 1.0 0.0 0.0 1.0 1.0 0.0
8
1.0 0.0 1.0 0.0 0.0 1.0 1.0 0.0
8
0.00391295 0.996087 0.0535574 0.946443 0.464414 0.535586 0.154742 0.845258
8
1.0 0.0 0.0 1.0 0.0 1.0 0.0 1.0
8
1.0 0.0 1.0 0.0 1.0 0.0 0.0 1.0
8
1.0 0.0 0.0 1.0 1.0 0.0 1.0 0.0
8
0.0 1.0 0.0 1.0 0.0 1.0 1.0 0.0
4
1.0 0.0 0.0 1.0
8
1.0 0.0 1.0 0.0 0.0 1.0 1.0 0.0
8
0.0 1.0 0.0 1.0 1.0 0.0 0.0 1.0
8
0.906223 0.0937766 0.231135 0.768865 0.275206 0.724794 0.563183 0.436817
8
0.0 1.0 0.0 1.0 1.0 0.0 1.0 0.0
8
1.0 0.0 1.0 0.0 0.0 1.0 1.0 0.0
8
0.0412288 0.958771 0.924043 0.0759567 0.535041 0.464959 0.741277 0.258723
8
1.0 0.0 0.0 1.0 1.0 0.0 1.0 0.0
8
0.0 1.0 1.0 0.0 1.0 0.0 0.0 1.0
8
0.0 1.0 0.0 1.0 1.0 0.0 1.0 0.0
8
0.0 1.0 1.0 0.0 1.0 0.0 1.0 0.0
8
0.0 1.0 0.0 1.0 1.0 0.0 0.0 1.0
8
0.0 1.0 1.0 0.0 1.0 0.0 1.0 0.0
8
0.574562 0.425438 0.00600468 0.993995 0.103904 0.896096 0.565699 0.434301
8
0.0 1.0 1.0 0.0 1.0 0.0 0.0 1.0
8
0.0 1.0 0.0 1.0 0.0 1.0 1.0 0.0
8
0.0 1.0 0.0 1.0 0.0 1.0 1.0 0.0
8
0.0 1.0 0.0 1.0 1.0 0.0 1.0 0.0
8
0.0 1.0 0.0 1.0 1.0 0.0 0.0 1.0
8
0.533049 0.466951 0.35581 0.64419 0.841511 0.158489 0.636954 0.363046
8
0.151456 0.848544 0.0983926 0.901607 0.868182 0.131818 0.462589 0.537411
8
0.0 1.0 1.0 0.0 0.0 1.0 0.0 1.0
8
0.0165435 0.983457 0.253724 0.746276 0.613353 0.386647 0.896546 0.103454
8
0.730866 0.269134 0.573536 0.426464 0.284055 0.715945 0.959796 0.0402036
8
1.0 0.0 0.0 1.0 1.0 0.0 0.0 1.0
4
0.139032 0.860968 0.209519 0.790481
8
1.0 0.0 0.0 1.0 0.0 1.0 0.0 1.0
8
0.124115 0.875885 0.594588 0.405412 0.380027 0.619973 0.30624 0.69376
8
1.0 0.0 1.0 0.0 0.0 1.0 1.0 0.0
8
0.0 1.0 0.0 1.0 1.0 0.0 0.0 1.0
8
1.0 0.0 0.0 1.0 1.0 0.0 1.0 0.0
8
0.0 1.0 1.0 0.0 0.0 1.0 0.0 1.0
8
1.0 0.0 0.0 1.0 1.0 0.0 1.0 0.0
8
1.0 0.0 1.0 0.0 0.0 1.0 1.0 0.0
8
0.726603 0.273397 0.908389 0.091611 0.79354 0.20646 0.676657 0.323343
8
0.0 1.0 1.0 0.0 1.0 0.0 1.0 0.0
8
0.942904 0.0570961 0.0760363 0.923964 0.392318 0.607682 0.678642 0.321358
8
0.0 1.0 1.0 0.0 1.0 0.0 0.0 1.0
8
0.0 1.0 1.0 0.0 1.0 0.0 1.0 0.0
8
0.59384 0.40616 0.171497 0.828503 0.510906 0.489094 0.386932 0.613068
8
1.0 0.0 1.0 0.0 0.0 1.0 1.0 0.0
8
0.150388 0.849612 0.504881 0.495119 0.31345 0.68655 0.261225 0.738775
8
0.0 1.0 0.0 1.0 1.0 0.0 1.0 0.0
8
0.930355 0.069645 0.793931 0.206069 0.973621 0.0263793 0.00170572 0.998294
8
0.686197 0.313803 0.894445 0.105555 0.738452 0.261548 0.866972 0.133028
8
0.650747 0.349253 0.460812 0.539188 0.0360026 0.963997 0.161653 0.838347
8
0.715177 0.284823 0.459131 0.540869 0.961278 0.0387217 0.30274 0.69726
8
0.0 1.0 0.0 1.0 0.0 1.0 1.0 0.0
8
1.0 0.0 0.0 1.0 0.0 1.0 0.0 1.0
8
1.0 0.0 0.0 1.0 0.0 1.0 1.0 0.0
4
1.0 0.0 0.0 1.0
8
1.0 0.0 0.0 1.0 0.0 1.0 0.0 1.0
8
1.0 0.0 0.0 1.0 0.0 1.0 0.0 1.0
8
0.0 1.0 1.0 0.0 1.0 0.0 0.0 1.0
8
1.0 0.0 0.0 1.0 1.0 0.0 0.0 1.0
8
1.0 0.0 0.0 1.0 0.0 1.0 0.0 1.0
8
1.0 0.0 0.0 1.0 0.0 1.0 0.0 1.0
8
0.400355 0.599645 0.867065 0.132935 0.269741 0.730259 0.384595 0.615405
8
0.0 1.0 1.0 0.0 1.0 0.0 0.0 1.0
8
0.0 1.0 1.0 0.0 1.0 0.0 1.0 0.0
8
0.0 1.0 0.0 1.0 1.0 0.0 1.0 0.0
8
1.0 0.0 1.0 0.0 0.0 1.0 0.0 1.0
8
0.0 1.0 1.0 0.0 1.0 0.0 0.0 1.0
8
0.0 1.0 1.0 0.0 0.0 1.0 0.0 1.0
8
0.0 1.0 0.0 1.0 1.0 0.0 0.0 1.0
8
0.282566 0.717434 0.377325 0.622675 0.0165021 0.983498 0.348215 0.651785
8
0.670513 0.329487 0.997205 0.00279485 0.914252 0.0857485 0.0605587 0.939441
8
0.0 1.0 1.0 0.0 0.0 1.0 1.0 0.0
8
1.0 0.0 0.0 1.0 1.0 0.0 0.0 1.0
8
0.0 1.0 0.0 1.0 0.0 1.0 1.0 0.0
8
0.0 1.0 1.0 0.0 1.0 0.0 1.0 0.0
8
0.399501 0.600499 0.344438 0.655562 0.233894 0.766106 0.416003 0.583997
8
1.0 0.0 1.0 0.0 0.0 1.0 0.0 1.0
8
0.0 1.0 0.0 1.0 1.0 0.0 0.0 1.0
8
0.0 1.0 1.0 0.0 1.0 0.0 1.0 0.0
4
0.087861 0.912139 0.791286 0.208714
8
0.758729 0.241271 0.610079 0.389921 0.657049 0.342951 0.734697 0.265303
8
1.0 0.0 1.0 0.0 0.0 1.0 1.0 0.0
8
1.0 0.0 1.0 0.0 1.0 0.0 0.0 1.0
8
1.0 0.0 0.0 1.0 0.0 1.0 1.0 0.0
8
0.633532 0.366468 0.801177 0.198823 0.180301 0.819699 0.664575 0.335425
8
0.0 1.0 1.0 0.0 1.0 0.0 0.0 1.0
8
0.073515 0.926485 0.0813013 0.918699 0.459077 0.540923 0.730564 0.269436
8
0.839082 0.160918 0.0103562 0.989644 0.612567 0.387433 0.0756558 0.924344
8
0.0 1.0 0.0 1.0 0.0 1.0 1.0 0.0
8
0.0 1.0 1.0 0.0 1.0 0.0 1.0 0.0
8
1.0 0.0 0.0 1.0 1.0 0.0 0.0 1.0
8
0.0 1.0 1.0 0.0 0.0 1.0 0.0 1.0
8
0.0 1.0 0.0 1.0 1.0 0.0 1.0 0.0
8
0.0 1.0 1.0 0.0 0.0 1.0 1.0 0.0
8
0.0 1.0 1.0 0.0 1.0 0.0 0.0 1.0
8
0.0 1.0 1.0 0.0 0.0 1.0 1.0 0.0
8
0.0 1.0 0.0 1.0 1.0 0.0 1.0 0.0
8
0.621795 0.378205 0.469876 0.530124 0.526716 0.473284 0.42267 0.57733
8
0.0 1.0 0.0 1.0 1.0 0.0 1.0 0.0
8
0.249077 0.750923 0.785352 0.214648 0.517324 0.482676 0.0258107 0.974189
8
1.0 0.0 1.0 0.0 0.0 1.0 0.0 1.0
8
0.0 1.0 1.0 0.0 0.0 1.0 0.0 1.0
8
0.0 1.0 0.0 1.0 1.0 0.0 0.0 1.0
8
1.0 0.0 1.0 0.0 1.0 0.0 0.0 1.0